0 1
0 2
0 4
0 5
0 10
0 17
0 18
1 0
1 4
1 10
1 16
1 17
2 0
2 4
2 5
2 6
3 4
3 6
3 9
3 12
4 0
4 1
4 2
4 3
4 8
4 9
4 11
4 15
4 16
5 0
5 2
5 6
5 7
5 13
5 14
5 18
6 2
6 3
6 5
6 12
6 14
6 19
7 5
7 13
7 18
8 4
8 11
9 3
9 4
9 12
10 0
10 1
10 16
10 17
11 4
11 8
12 3
12 6
12 9
13 5
13 7
13 14
14 5
14 6
14 13
14 19
15 4
16 1
16 4
16 10
16 17
17 0
17 1
17 10
17 16
18 0
18 5
18 7
19 6
19 14


index  0  1  2  3  4  5  6  7  8  9 10 11 12 13 14 15 16 17 18 19
    0  0  1  1  0  1  1  0  0  0  0  1  0  0  0  0  0  0  1  1  0
    1  1  0  0  0  1  0  0  0  0  0  1  0  0  0  0  0  1  1  0  0
    2  1  0  0  0  1  1  1  0  0  0  0  0  0  0  0  0  0  0  0  0
    3  0  0  0  0  1  0  1  0  0  1  0  0  1  0  0  0  0  0  0  0
    4  1  1  1  1  0  0  0  0  1  1  0  1  0  0  0  1  1  0  0  0
    5  1  0  1  0  0  0  1  1  0  0  0  0  0  1  1  0  0  0  1  0
    6  0  0  1  1  0  1  0  0  0  0  0  0  1  0  1  0  0  0  0  1
    7  0  0  0  0  0  1  0  0  0  0  0  0  0  1  0  0  0  0  1  0
    8  0  0  0  0  1  0  0  0  0  0  0  1  0  0  0  0  0  0  0  0
    9  0  0  0  1  1  0  0  0  0  0  0  0  1  0  0  0  0  0  0  0
   10  1  1  0  0  0  0  0  0  0  0  0  0  0  0  0  0  1  1  0  0
   11  0  0  0  0  1  0  0  0  1  0  0  0  0  0  0  0  0  0  0  0
   12  0  0  0  1  0  0  1  0  0  1  0  0  0  0  0  0  0  0  0  0
   13  0  0  0  0  0  1  0  1  0  0  0  0  0  0  1  0  0  0  0  0
   14  0  0  0  0  0  1  1  0  0  0  0  0  0  1  0  0  0  0  0  1
   15  0  0  0  0  1  0  0  0  0  0  0  0  0  0  0  0  0  0  0  0
   16  0  1  0  0  1  0  0  0  0  0  1  0  0  0  0  0  0  1  0  0
   17  1  1  0  0  0  0  0  0  0  0  1  0  0  0  0  0  1  0  0  0
   18  1  0  0  0  0  1  0  1  0  0  0  0  0  0  0  0  0  0  0  0
   19  0  0  0  0  0  0  1  0  0  0  0  0  0  0  1  0  0  0  0  0


newColor = 1
index      0  1  2  3  4  5  6  7  8  9  10 11 12 13 14 15 16 17 18 19 
nodeColor  1  0  0  1  0  0  0  1  1  0  0  0  0  0  1  1  1  0  0  0  

newColor = 2
index      0  1  2  3  4  5  6  7  8  9  10 11 12 13 14 15 16 17 18 19 
nodeColor  1  2  2  1  0  0  0  1  1  2  0  2  0  2  1  1  1  0  2  2  

newColor = 3
index      0  1  2  3  4  5  6  7  8  9  10 11 12 13 14 15 16 17 18 19 
nodeColor  1  2  2  1  3  3  0  1  1  2  3  2  3  2  1  1  1  0  2  2  

newColor = 4
index      0  1  2  3  4  5  6  7  8  9  10 11 12 13 14 15 16 17 18 19 
nodeColor  1  2  2  1  3  3  4  1  1  2  3  2  3  2  1  1  1  4  2  2  

The number of colors used to color the graph = 4


index  0  1  2  3  4  5  6  7  8  9 10 11 12 13 14 15 16 17 18 19
    0  1  1  1  0  1  1  0  0  0  0  1  0  0  0  0  0  0  1  1  0
    1  1  2  0  0  1  0  0  0  0  0  1  0  0  0  0  0  1  1  0  0
    2  1  0  2  0  1  1  1  0  0  0  0  0  0  0  0  0  0  0  0  0
    3  0  0  0  1  1  0  1  0  0  1  0  0  1  0  0  0  0  0  0  0
    4  1  1  1  1  3  0  0  0  1  1  0  1  0  0  0  1  1  0  0  0
    5  1  0  1  0  0  3  1  1  0  0  0  0  0  1  1  0  0  0  1  0
    6  0  0  1  1  0  1  4  0  0  0  0  0  1  0  1  0  0  0  0  1
    7  0  0  0  0  0  1  0  1  0  0  0  0  0  1  0  0  0  0  1  0
    8  0  0  0  0  1  0  0  0  1  0  0  1  0  0  0  0  0  0  0  0
    9  0  0  0  1  1  0  0  0  0  2  0  0  1  0  0  0  0  0  0  0
   10  1  1  0  0  0  0  0  0  0  0  3  0  0  0  0  0  1  1  0  0
   11  0  0  0  0  1  0  0  0  1  0  0  2  0  0  0  0  0  0  0  0
   12  0  0  0  1  0  0  1  0  0  1  0  0  3  0  0  0  0  0  0  0
   13  0  0  0  0  0  1  0  1  0  0  0  0  0  2  1  0  0  0  0  0
   14  0  0  0  0  0  1  1  0  0  0  0  0  0  1  1  0  0  0  0  1
   15  0  0  0  0  1  0  0  0  0  0  0  0  0  0  0  1  0  0  0  0
   16  0  1  0  0  1  0  0  0  0  0  1  0  0  0  0  0  1  1  0  0
   17  1  1  0  0  0  0  0  0  0  0  1  0  0  0  0  0  1  4  0  0
   18  1  0  0  0  0  1  0  1  0  0  0  0  0  0  0  0  0  0  2  0
   19  0  0  0  0  0  0  1  0  0  0  0  0  0  0  1  0  0  0  0  2
